
  27    0


   0  15 2 3 4 5 6 7 8 9 11 12 13 23 24 25 26 
  10   6 21 20 18 17 16 15 
   6   5 21 18 16 15 14 
   9   4 22 19 18 17 
   6   2 16 10 
   4   2 15 14 
   3   2 20 17 
   8   2 17 14 
   3   2 16 14 
   5   1 14 
   8   1 19 
   9   1 15 
   5   1 14 
  10   1 27
   5   1 27
   8   1 27
   5   1 27
  10   1 27
   1   1 27
   4   1 27
   6   1 27
   6   1 27
   5   1 27
   9   1 27
   6   1 27
   2   1 27
   0   0 
